LAMMPS (27 Jun 2024)
OMP_NUM_THREADS environment is not set. Defaulting to 1 thread. (src/comm.cpp:98)
  using 1 OpenMP thread(s) per MPI task
Loaded 1 plugins from C:\Users\nande\AppData\Local\LAMMPS 64-bit 27Jun2024 with GUI\plugins
# LAMMPS input script for polymer mixture simulation

# Initialization
units           lj
atom_style      molecular
boundary        p p p
read_data       C:\Users\nande\Desktop\mtp\case_2_fixed_density\new_poly_data\density_cons_x_10\polymer_system_16_10.data
Reading data file ...
  orthogonal box = (0 0 0) to (32 32 32)
  1 by 1 by 1 MPI processor grid
  reading atoms ...
  3264 atoms
  scanning bonds ...
  1 = max bonds/atom
  orthogonal box = (0 0 0) to (32 32 32)
  1 by 1 by 1 MPI processor grid
  reading bonds ...
  3060 bonds
Finding 1-2 1-3 1-4 neighbors ...
  special bond factors lj:    0        0        0       
  special bond factors coul:  0        0        0       
     2 = max # of 1-2 neighbors
     2 = max # of 1-3 neighbors
     4 = max # of 1-4 neighbors
     6 = max # of special neighbors
  special bonds CPU = 0.002 seconds
  read_data CPU = 0.032 seconds


# Force field definition
bond_style      fene
bond_coeff      1 30.0 1.5 1.0 1.0 # k=30, r0=1.5, e=1, sigma=1

# Non-bonded interactions
pair_style      lj/cut 2.5 # Cutoff distance
pair_modify     shift yes # Shift LJ potential to 0 at cutoff

# Initial interaction parameters (equilibration)
#pair_coeff I J epsilon sigma
pair_coeff      * * 1.0 1.0  # A-A interactions
# pair_coeff      2 2 1.0 1.0  # B-B interactions
# pair_coeff      1 2 1.0 1.0  # A-B interactions

special_bonds   lj 0.0 1.0 1.0 # Exclude LJ for 1-2
Finding 1-2 1-3 1-4 neighbors ...
  special bond factors lj:    0        1        1       
  special bond factors coul:  0        0        0       
     2 = max # of 1-2 neighbors
     2 = max # of 1-3 neighbors
     4 = max # of 1-4 neighbors
     6 = max # of special neighbors
  special bonds CPU = 0.002 seconds

# Neighbor lists
neighbor        0.3 bin
neigh_modify    every 1 delay 0 check yes

# System groups
group           type_A type 1
1632 atoms in group type_A
group           type_B type 2
1632 atoms in group type_B

# Energy minimization
minimize        1.0e-4 1.0e-6 1000 10000

CITE-CITE-CITE-CITE-CITE-CITE-CITE-CITE-CITE-CITE-CITE-CITE-CITE

Your simulation uses code contributions which should be cited:

- Type Label Framework: https://doi.org/10.1021/acs.jpcb.3c08419

@Article{Gissinger24,
 author = {Jacob R. Gissinger, Ilia Nikiforov, Yaser Afshar, Brendon Waters, Moon-ki Choi, Daniel S. Karls, Alexander Stukowski, Wonpil Im, Hendrik Heinz, Axel Kohlmeyer, and Ellad B. Tadmor},
 title = {Type Label Framework for Bonded Force Fields in LAMMPS},
 journal = {J. Phys. Chem. B},
 year =    2024,
 volume =  128,
 number =  13,
 pages =   {3282–-3297}
}

CITE-CITE-CITE-CITE-CITE-CITE-CITE-CITE-CITE-CITE-CITE-CITE-CITE

Generated 0 of 1 mixed pair_coeff terms from geometric mixing rule
Neighbor list info ...
  update: every = 1 steps, delay = 0 steps, check = yes
  max neighbors/atom: 2000, page size: 100000
  master list distance cutoff = 2.8
  ghost atom cutoff = 2.8
  binsize = 1.4, bins = 23 23 23
  1 neighbor lists, perpetual/occasional/extra = 1 0 0
  (1) pair lj/cut, perpetual
      attributes: half, newton on
      pair build: half/bin/newton
      stencil: half/bin/3d
      bin: standard
Per MPI rank memory allocation (min/avg/max) = 7.687 | 7.687 | 7.687 Mbytes
   Step          Temp          E_pair         E_mol          TotEng         Press     
         0   0             -0.1115272      26.175259      26.063732      5.6755626    
        21   0             -0.057031502    18.941529      18.884497     -0.051587947  
Loop time of 0.018271 on 1 procs for 21 steps with 3264 atoms

85.5% CPU use with 1 MPI tasks x 1 OpenMP threads

Minimization stats:
  Stopping criterion = energy tolerance
  Energy initial, next-to-last, final = 
      26.0637319434159   18.8850556297409   18.8844974796336
  Force two-norm initial, final = 4256.8096 47.333043
  Force max component initial, final = 210.65642 2.1079526
  Final line search alpha, max atom move = 0.032787899 0.069115337
  Iterations, force evaluations = 21 40

MPI task timing breakdown:
Section |  min time  |  avg time  |  max time  |%varavg| %total
---------------------------------------------------------------
Pair    | 0.003294   | 0.003294   | 0.003294   |   0.0 | 18.03
Bond    | 0.007081   | 0.007081   | 0.007081   |   0.0 | 38.76
Neigh   | 0.00472    | 0.00472    | 0.00472    |   0.0 | 25.83
Comm    | 0.000691   | 0.000691   | 0.000691   |   0.0 |  3.78
Output  | 0          | 0          | 0          |   0.0 |  0.00
Modify  | 0          | 0          | 0          |   0.0 |  0.00
Other   |            | 0.002485   |            |       | 13.60

Nlocal:           3264 ave        3264 max        3264 min
Histogram: 1 0 0 0 0 0 0 0 0 0
Nghost:           1700 ave        1700 max        1700 min
Histogram: 1 0 0 0 0 0 0 0 0 0
Neighs:           3975 ave        3975 max        3975 min
Histogram: 1 0 0 0 0 0 0 0 0 0

Total # of neighbors = 3975
Ave neighs/atom = 1.2178309
Ave special neighs/atom = 5.25
Neighbor list builds = 6
Dangerous builds = 0

# Set up time integration
timestep        0.005

# Temperature control
variable        temp equal 2.0
fix             1 all langevin ${temp} ${temp} 1.0 3
fix             1 all langevin 2 ${temp} 1.0 3
fix             1 all langevin 2 2 1.0 3
fix             2 all nve

# Output settings
thermo_style    custom step
thermo          1000   # Print every 1000 steps (one timestep=0.005)

# Equilibration run
dump            eq_dump all custom 1000 equilibration.lammpstrj id type x y z
dump_modify     eq_dump sort id


# Equilibration run
run             50000
Generated 0 of 1 mixed pair_coeff terms from geometric mixing rule
Per MPI rank memory allocation (min/avg/max) = 6.562 | 6.562 | 6.562 Mbytes
   Step    
        21 
      1000 
      2000 
      3000 
      4000 
      5000 
      6000 
      7000 
      8000 
      9000 
     10000 
     11000 
     12000 
     13000 
     14000 
     15000 
     16000 
     17000 
     18000 
     19000 
     20000 
     21000 
     22000 
     23000 
     24000 
     25000 
     26000 
     27000 
     28000 
     29000 
     30000 
     31000 
     32000 
     33000 
     34000 
     35000 
     36000 
     37000 
     38000 
     39000 
     40000 
     41000 
     42000 
     43000 
     44000 
     45000 
     46000 
     47000 
     48000 
     49000 
     50000 
     50021 
Loop time of 55.2067 on 1 procs for 50000 steps with 3264 atoms

Performance: 391256.993 tau/day, 905.687 timesteps/s, 2.956 Matom-step/s
99.5% CPU use with 1 MPI tasks x 1 OpenMP threads

MPI task timing breakdown:
Section |  min time  |  avg time  |  max time  |%varavg| %total
---------------------------------------------------------------
Pair    | 21.128     | 21.128     | 21.128     |   0.0 | 38.27
Bond    | 1.6371     | 1.6371     | 1.6371     |   0.0 |  2.97
Neigh   | 22.578     | 22.578     | 22.578     |   0.0 | 40.90
Comm    | 0.94388    | 0.94388    | 0.94388    |   0.0 |  1.71
Output  | 0.28478    | 0.28478    | 0.28478    |   0.0 |  0.52
Modify  | 7.9453     | 7.9453     | 7.9453     |   0.0 | 14.39
Other   |            | 0.6897     |            |       |  1.25

Nlocal:           3264 ave        3264 max        3264 min
Histogram: 1 0 0 0 0 0 0 0 0 0
Nghost:           1785 ave        1785 max        1785 min
Histogram: 1 0 0 0 0 0 0 0 0 0
Neighs:          37923 ave       37923 max       37923 min
Histogram: 1 0 0 0 0 0 0 0 0 0

Total # of neighbors = 37923
Ave neighs/atom = 11.618566
Ave special neighs/atom = 5.25
Neighbor list builds = 9381
Dangerous builds = 0


# Unfix and undump equilibration outputs

undump          eq_dump

reset_timestep 0

# Change interaction parameters for production
# pair_coeff      1 2 0.5 1.0  # Modify A-B interactions


#Compute properties
# compute         rg_A type_A gyration
# compute         rg_B type_B gyration
# compute         rg_all all gyration

# compute         msd_A type_A msd com yes
# compute         msd_B type_B msd com yes
compute         msd_12_10_2 all msd com yes


# compute         RDF all rdf 50 1 1 2 2 1 2 #new



# # Start file output with headers
#  print "Time MSD_A" file msd_A.dat
#  print "Time MSD_B" file msd_B.dat

print "Time msd_12_10_1" file msd_12_10_2.dat #new
Time msd_12_10_1

# print "Time Rg_A" file rg_A.dat
# print "Time Rg_B" file rg_B.dat

# print "Time Rg_all" file rg_all.dat #new

# Use fix ave/time to compute time-averaged values for MSD and Rg
#  fix msd_avg_A type_A ave/time 100 1 100 c_msd_A[4] file msd_A.dat mode scalar
#  fix msd_avg_B type_B ave/time 100 1 100 c_msd_B[4] file msd_B.dat mode scalar
 fix msd_avg_all all ave/time 100 1 100 c_msd_12_10_2[4]  file msd_12_10_2.dat mode scalar#new

# fix rg_avg_A type_A ave/time 100 1 100 c_rg_A file rg_A.dat
# fix rg_avg_B type_B ave/time 100 1 100 c_rg_B file rg_B.dat
# fix rg_avg_all all ave/time 100 1 100 c_rg_all file rg_all.dat  #new


# Production run with single dump file

dump prod_dump all custom 1000 production.lammpstrj id type x y z
dump_modify prod_dump sort id


# RDF averaging for production
# fix rdf_avg_prod all ave/time 100 1 100 c_RDF[*] file rdf_production.avg mode vector

# Run production
run 100000
Generated 0 of 1 mixed pair_coeff terms from geometric mixing rule
Per MPI rank memory allocation (min/avg/max) = 6.939 | 6.939 | 6.939 Mbytes
   Step    
         0 
      1000 
      2000 
      3000 
      4000 
      5000 
      6000 
      7000 
      8000 
      9000 
     10000 
     11000 
     12000 
     13000 
     14000 
     15000 
     16000 
     17000 
     18000 
     19000 
     20000 
     21000 
     22000 
     23000 
     24000 
     25000 
     26000 
     27000 
     28000 
     29000 
     30000 
     31000 
     32000 
     33000 
     34000 
     35000 
     36000 
     37000 
     38000 
     39000 
     40000 
     41000 
     42000 
     43000 
     44000 
     45000 
     46000 
     47000 
     48000 
     49000 
     50000 
     51000 
     52000 
     53000 
     54000 
     55000 
     56000 
     57000 
     58000 
     59000 
     60000 
     61000 
     62000 
     63000 
     64000 
     65000 
     66000 
     67000 
     68000 
     69000 
     70000 
     71000 
     72000 
     73000 
     74000 
     75000 
     76000 
     77000 
     78000 
     79000 
     80000 
     81000 
     82000 
     83000 
     84000 
     85000 
     86000 
     87000 
     88000 
     89000 
     90000 
     91000 
     92000 
     93000 
     94000 
     95000 
     96000 
     97000 
     98000 
     99000 
    100000 
Loop time of 120.807 on 1 procs for 100000 steps with 3264 atoms

Performance: 357595.424 tau/day, 827.767 timesteps/s, 2.702 Matom-step/s
99.4% CPU use with 1 MPI tasks x 1 OpenMP threads

MPI task timing breakdown:
Section |  min time  |  avg time  |  max time  |%varavg| %total
---------------------------------------------------------------
Pair    | 48.2       | 48.2       | 48.2       |   0.0 | 39.90
Bond    | 3.215      | 3.215      | 3.215      |   0.0 |  2.66
Neigh   | 49.689     | 49.689     | 49.689     |   0.0 | 41.13
Comm    | 2.3478     | 2.3478     | 2.3478     |   0.0 |  1.94
Output  | 0.59445    | 0.59445    | 0.59445    |   0.0 |  0.49
Modify  | 15.422     | 15.422     | 15.422     |   0.0 | 12.77
Other   |            | 1.339      |            |       |  1.11

Nlocal:           3264 ave        3264 max        3264 min
Histogram: 1 0 0 0 0 0 0 0 0 0
Nghost:           2835 ave        2835 max        2835 min
Histogram: 1 0 0 0 0 0 0 0 0 0
Neighs:          50857 ave       50857 max       50857 min
Histogram: 1 0 0 0 0 0 0 0 0 0

Total # of neighbors = 50857
Ave neighs/atom = 15.581189
Ave special neighs/atom = 5.25
Neighbor list builds = 18778
Dangerous builds = 0

# Write final configuration
write_data final_config.data
System init for write_data ...
Generated 0 of 1 mixed pair_coeff terms from geometric mixing rule
WARNING: Not all mixed pair coeffs generated from mixing. Use write_data with 'pair ij' option to store all pair coeffs. (src/write_data.cpp:368)
Total wall time: 0:02:55
